problems/csplib-prob015/SchursLemma-models/noch/O2/lingeling/model_1_4-5-11-solution000001.eprime-solution
language ESSENCE' 1.0

letting boxes_PartitionOccurrence_FirstIndex be [1, 2, 3, 8, 9; int(1..5)]
letting boxes_PartitionOccurrence_NumParts be 5
letting boxes_PartitionOccurrence_PartSizes be [2, 2, 5, 1, 1; int(1..5)]
letting boxes_PartitionOccurrence_WhichPart be [1, 2, 3, 3, 3, 2, 1, 4, 5, 3, 3; int(1..11)]
