problems/csplib-prob015/SchursLemma-models/noch/O2/lingeling/model_1_4-5-11-solution000001.solution
language Essence 1.3

letting boxes be partition({1, 7}, {2, 6}, {3, 4, 5, 10, 11}, {8}, {9})
